NAME: archipelago120_GA
TYPE: TOUR
DIMENSION: 120
TOUR_SECTION
34
6
14
12
11
19
7
2
9
13
10
18
3
8
16
5
1
20
4
15
17
89
81
83
93
80
88
90
85
79
76
77
82
98
92
94
86
96
91
84
97
95
78
87
50
55
43
38
44
37
56
52
54
40
47
36
49
53
48
42
45
39
51
41
57
46
120
100
102
110
106
113
105
104
115
107
114
103
111
101
112
108
118
119
99
116
117
109
70
74
62
64
63
60
72
75
68
65
59
71
58
69
66
61
73
67
31
28
33
32
27
25
21
35
26
24
29
30
23
22
-1
EOF
